p cnf 8 30
7 -5 4 6 8 3 -2 0
7 6 -4 1 0
6 -2 -7 -1 -8 0
-8 5 0
3 5 -6 -8 -7 0
-3 -5 -2 -6 0
-2 6 -3 -1 -7 5 4 0
7 3 -4 5 0
8 4 -6 7 0
5 8 -2 6 -4 1 7 3 0
-7 2 3 0
8 4 -1 -5 0
-8 -1 0
4 7 -6 2 5 0
-1 3 -5 4 0
3 -2 -8 4 -5 6 1 7 0
-3 -1 8 -5 7 4 6 2 0
8 7 -4 2 -1 0
-7 6 -3 0
6 -8 0
2 -4 -8 0
2 -8 7 -4 0
5 2 -1 4 0
6 3 0
8 7 0
-5 3 0
7 2 3 0
-3 6 -4 2 1 -5 7 8 0
-7 4 -3 1 0
4 -6 2 -8 7 0
